
  17    4
  10   10   10   10

   0   0   0   0   0   5 2 3 4 6 9 
   7  10  10  10  10   3 11 10 5 
   3  10  10  10  10   3 8 7 5 
   6  10  10  10  10   3 12 11 10 
   4  10  10  10  10   3 15 14 12 
   2  10  10  10  10   1 7 
   9  10  10  10  10   3 15 14 13 
  10  10  10  10  10   3 15 14 13 
   8  10  10  10  10   3 15 14 13 
   8  10  10  10  10   2 15 14 
   3  10  10  10  10   2 15 14 
   3  10  10  10  10   1 13 
  10  10  10  10  10   1 16 
   8  10  10  10  10   1 17
   1  10  10  10  10   1 17
   8  10  10  10  10   1 17
   0   0   0   0   0   0 
